(declare-datatypes ((Lst 0)) (((cons (param160 Int) (param161 Lst))(nil))))
(declare-datatypes ((Queue 0)) (((queue  (param162 Lst) (param163 Lst)))))
(declare-fun append (Lst Lst ) Lst)
(declare-fun len (Lst ) Int)
(declare-fun qlen (Queue ) Int)
(assert (forall ((|_FH_2'| Lst)) (= (append |_FH_2'| |_FH_2'|) nil)))
(assert (forall ((_FH_1 Lst) (x Int) (_FH_2 Lst)) (= (append _FH_1 (cons x _FH_2)) (cons x (append _FH_1 _FH_2)))))
(assert (= (len nil) 0))
(assert (forall ((x Int) (_FH_3 Lst)) (=> true (= (len (cons x _FH_3)) (+ (len _FH_3) 1)))))
(assert (not (forall ((_FH_3 Lst) (_FH_10 Lst)) (= (+ (len _FH_3) (len _FH_10)) (qlen (queue _FH_3 _FH_10))))))
(check-sat)